PROBLEM NAME: 	berlin52-TTP_trivialized
KNAPSACK DATA TYPE: bounded strongly corr
DIMENSION:	4
NUMBER OF ITEMS: 	6
CAPACITY OF KNAPSACK: 	3
MIN SPEED: 	0.1
MAX SPEED: 	1
RENTING RATIO: 	0.56
EDGE_WEIGHT_TYPE:	CEIL_2D
NODE_COORD_SECTION	(INDEX, X, Y): 
1	565.0	575.0
2	25.0	185.0
3	345.0	750.0
4	945.0	685.0
ITEMS SECTION	(INDEX, PROFIT, WEIGHT, ASSIGNED NODE NUMBER): 
1	101	1	1
2	40	1	1
3	60	2	1
4	40	3	1
5	40	1	1
6	100 1	1
